100
0 0 0 82 0 96 74 40 -42 26 0 0 -4 52 0 0 0 0 0 -100 -4 0 -100 0 40 -46 0 0 -22 0 0 0 0 0 8 -18 -76 46 54 0 96 0 0 0 0 0 42 0 -78 18 0 0 44 0 0 0 46 -82 -12 72 0 0 -80 0 52 -4 -18 0 0 0 -98 18 -68 0 -18 0 62 0 -12 0 -96 0 0 0 0 0 24 0 24 96 0 0 0 84 -20 68 0 -90 0 0
-59 -39 -71 0 39 0 0 0 0 0 3 47 0 0 13 -93 -11 -65 -1 0 0 -37 0 7 0 0 -35 -55 0 9 -35 -79 95 23 0 0 0 0 0 67 0 83 -23 -39 39 47 0 57 0 0 85 -5 0 55 83 75 0 0 0 0 41 -83 0 -1 0 0 0 13 -73 23 0 0 0 59 0 -65 0 -65 0 -55 0 -5 21 -63 -97 -99 0 -13 0 0 91 -73 99 0 0 0 -89 0 -33 -83
